10
1 0 70
2 0 21
2 1 80
3 0 27
3 1 120
3 2 62
4 0 110
4 1 59
4 2 104
4 3 20
5 0 26
5 1 99
5 2 77
5 3 54
5 4 44
6 0 84
6 1 16
6 2 102
6 3 66
6 4 46
6 5 114
7 0 102
7 1 82
7 2 14
7 3 90
7 4 78
7 5 49
7 6 92
8 0 38
8 1 37
8 2 12
8 3 14
8 4 17
8 5 9
8 6 51
8 7 33
9 0 117
9 1 120
9 2 54
9 3 100
9 4 88
9 5 17
9 6 37
9 7 83
9 8 58
